solution status: optimal solution found
objective value:                                    6
x72                                                 1 	(obj:1)
x77                                                 1 	(obj:1)
x91                                                 1 	(obj:1)
x92                                                 1 	(obj:1)
x108                                                1 	(obj:1)
x119                                                1 	(obj:1)
$_170_y                                            18 	(obj:0)
$_170_z                                            18 	(obj:0)
$_146_y                                            21 	(obj:0)
$_146_z                                            20 	(obj:0)
$_47_y                                             14 	(obj:0)
$_47_z                                             15 	(obj:0)
$_169_y                                            22 	(obj:0)
$_169_z                                            16 	(obj:0)
$_25_y                                             13 	(obj:0)
$_25_z                                             16 	(obj:0)
$_154_y                                            18 	(obj:0)
$_154_z                                            16 	(obj:0)
$_178_y                                            18 	(obj:0)
$_178_z                                            17 	(obj:0)
$_162_y                                            22 	(obj:0)
$_162_z                                            19 	(obj:0)
$_44_y                                             12 	(obj:0)
$_44_z                                             15 	(obj:0)
$_22_y                                             12 	(obj:0)
$_22_z                                             16 	(obj:0)
$_57_y                                             15 	(obj:0)
$_57_z                                             12 	(obj:0)
$_35_y                                             15 	(obj:0)
$_35_z                                             14 	(obj:0)
$_181_y                                            21 	(obj:0)
$_181_z                                            16 	(obj:0)
$_99_y                                             18 	(obj:0)
$_99_z                                             14 	(obj:0)
$_186_y                                            18 	(obj:0)
$_186_z                                            21 	(obj:0)
$_95_y                                             16 	(obj:0)
$_95_z                                             17 	(obj:0)
$_26_y                                             12 	(obj:0)
$_26_z                                             19 	(obj:0)
$_153_y                                            22 	(obj:0)
$_153_z                                            17 	(obj:0)
$_45_y                                             20 	(obj:0)
$_45_z                                             15 	(obj:0)
$_137_y                                            20 	(obj:0)
$_137_z                                            17 	(obj:0)
$_24_y                                             12 	(obj:0)
$_24_z                                             18 	(obj:0)
$_48_y                                             12 	(obj:0)
$_48_z                                             17 	(obj:0)
$_46_y                                             13 	(obj:0)
$_46_z                                             15 	(obj:0)
$_129_y                                            20 	(obj:0)
$_129_z                                            20 	(obj:0)
$_171_y                                            19 	(obj:0)
$_171_z                                            18 	(obj:0)
$_59_y                                             15 	(obj:0)
$_59_z                                             16 	(obj:0)
$_98_y                                             17 	(obj:0)
$_98_z                                             14 	(obj:0)
$_155_y                                            20 	(obj:0)
$_155_z                                            18 	(obj:0)
$_37_y                                             16 	(obj:0)
$_37_z                                             16 	(obj:0)
$_23_y                                             18 	(obj:0)
$_23_z                                             15 	(obj:0)
$_117_y                                            19 	(obj:0)
$_117_z                                            17 	(obj:0)
$_136_y                                            21 	(obj:0)
$_136_z                                            17 	(obj:0)
$_77_y                                             15 	(obj:0)
$_77_z                                             17 	(obj:0)
$_138_y                                            20 	(obj:0)
$_138_z                                            16 	(obj:0)
$_118_y                                            19 	(obj:0)
$_118_z                                            16 	(obj:0)
